NAME : cgl_51b.4146.tour
COMMENT : Length = 4146
COMMENT : Found by LKH-3 [Keld Helsgaun] Thu Jun 26 21:26:49 2025
TYPE : TOUR
DIMENSION : 52
TOUR_SECTION
8
5
7
9
13
15
16
17
14
18
20
19
21
22
23
26
25
24
28
27
29
52
42
41
40
37
39
38
36
35
34
33
50
43
44
45
46
51
47
48
49
31
32
30
1
2
3
4
6
12
11
10
-1
EOF
